;; translated from ./ctigar/simple_if.c.vmt
;; original benchmark available at: https://es-static.fbk.eu/people/griggio/ic3ia/index.html
;; author: Alberto Griggio <griggio@fbk.eu>
(set-logic HORN)
(declare-fun state (Bool Bool Bool Bool Int Int Int) Bool)
(assert (forall ((|.s.0| Bool) (|.s.1| Bool) (|.s.0.next| Bool) (|.s.1.next| Bool) (|.s.2.next| Bool) (|.s.3.next| Bool) (|main.i.next| Int) (|main.i| Int) (|main.m.next| Int) (|main.m| Int) (|main.n.next| Int) (|main.n| Int) (|.s.3| Bool) (|.s.2| Bool)) (=> (let ((.def_17 (not .s.3)))
(let ((.def_14 (not .s.2)))
(let ((.def_10 (not .s.1)))
(let ((.def_12 (and .def_10 .s.0)))
(let ((.def_15 (and .def_12 .def_14)))
(let ((.def_18 (and .def_15 .def_17)))
.def_18)))))) (state |.s.1| |.s.0| |.s.2| |.s.3| |main.i| |main.m| |main.n|))))
(assert (forall ((|.s.0| Bool) (|.s.1| Bool) (|.s.0.next| Bool) (|.s.1.next| Bool) (|.s.2.next| Bool) (|.s.3.next| Bool) (|main.i.next| Int) (|main.i| Int) (|main.m.next| Int) (|main.m| Int) (|main.n.next| Int) (|main.n| Int) (|.s.3| Bool) (|.s.2| Bool)) (=> (and (state |.s.1| |.s.0| |.s.2| |.s.3| |main.i| |main.m| |main.n|) (let ((.def_44 (not .s.0)))
(let ((.def_10 (not .s.1)))
(let ((.def_68 (and .def_10 .def_44)))
(let ((.def_14 (not .s.2)))
(let ((.def_69 (and .def_14 .def_68)))
(let ((.def_17 (not .s.3)))
(let ((.def_174 (and .def_17 .def_69)))
(let ((.def_175 (not .def_174)))
(let ((.def_51 (not .s.0.next)))
(let ((.def_50 (not .s.1.next)))
(let ((.def_52 (and .def_50 .def_51)))
(let ((.def_27 (not .s.2.next)))
(let ((.def_53 (and .def_27 .def_52)))
(let ((.def_49 (not .s.3.next)))
(let ((.def_54 (and .def_49 .def_53)))
(let ((.def_33 (= main.i main.i.next)))
(let ((.def_55 (and .def_33 .def_54)))
(let ((.def_37 (= main.m main.m.next)))
(let ((.def_56 (and .def_37 .def_55)))
(let ((.def_41 (= main.n main.n.next)))
(let ((.def_57 (and .def_41 .def_56)))
(let ((.def_176 (or .def_57 .def_175)))
(let ((.def_169 (= main.i.next 1)))
(let ((.def_61 (and .s.1.next .def_51)))
(let ((.def_62 (and .def_27 .def_61)))
(let ((.def_115 (and .def_49 .def_62)))
(let ((.def_170 (and .def_115 .def_169)))
(let ((.def_171 (and .def_37 .def_170)))
(let ((.def_172 (and .def_41 .def_171)))
(let ((.def_12 (and .def_10 .s.0)))
(let ((.def_15 (and .def_12 .def_14)))
(let ((.def_18 (and .def_15 .def_17)))
(let ((.def_168 (not .def_18)))
(let ((.def_173 (or .def_168 .def_172)))
(let ((.def_177 (and .def_173 .def_176)))
(let ((.def_163 (and .s.3.next .def_53)))
(let ((.def_164 (and .def_33 .def_163)))
(let ((.def_165 (and .def_37 .def_164)))
(let ((.def_166 (and .def_41 .def_165)))
(let ((.def_152 (<= main.n main.i)))
(let ((.def_45 (and .s.1 .def_44)))
(let ((.def_46 (and .def_14 .def_45)))
(let ((.def_151 (and .def_17 .def_46)))
(let ((.def_161 (and .def_151 .def_152)))
(let ((.def_162 (not .def_161)))
(let ((.def_167 (or .def_162 .def_166)))
(let ((.def_178 (and .def_167 .def_177)))
(let ((.def_25 (and .s.0.next .s.1.next)))
(let ((.def_28 (and .def_25 .def_27)))
(let ((.def_156 (and .def_28 .def_49)))
(let ((.def_157 (and .def_33 .def_156)))
(let ((.def_158 (and .def_37 .def_157)))
(let ((.def_159 (and .def_41 .def_158)))
(let ((.def_153 (not .def_152)))
(let ((.def_154 (and .def_151 .def_153)))
(let ((.def_155 (not .def_154)))
(let ((.def_160 (or .def_155 .def_159)))
(let ((.def_179 (and .def_160 .def_178)))
(let ((.def_145 (and .s.2.next .def_61)))
(let ((.def_146 (and .def_49 .def_145)))
(let ((.def_147 (and .def_33 .def_146)))
(let ((.def_148 (and .def_37 .def_147)))
(let ((.def_149 (and .def_41 .def_148)))
(let ((.def_133 (<= main.m 0)))
(let ((.def_19 (and .s.1 .s.0)))
(let ((.def_20 (and .def_14 .def_19)))
(let ((.def_132 (and .def_17 .def_20)))
(let ((.def_143 (and .def_132 .def_133)))
(let ((.def_144 (not .def_143)))
(let ((.def_150 (or .def_144 .def_149)))
(let ((.def_180 (and .def_150 .def_179)))
(let ((.def_137 (and .s.2.next .def_52)))
(let ((.def_138 (and .def_49 .def_137)))
(let ((.def_139 (and .def_33 .def_138)))
(let ((.def_140 (and .def_37 .def_139)))
(let ((.def_141 (and .def_41 .def_140)))
(let ((.def_134 (not .def_133)))
(let ((.def_135 (and .def_132 .def_134)))
(let ((.def_136 (not .def_135)))
(let ((.def_142 (or .def_136 .def_141)))
(let ((.def_181 (and .def_142 .def_180)))
(let ((.def_100 (* (- 1) main.i.next)))
(let ((.def_124 (* 2 main.i)))
(let ((.def_126 (+ .def_124 .def_100)))
(let ((.def_127 (= .def_126 0)))
(let ((.def_76 (and .s.0.next .def_50)))
(let ((.def_89 (and .s.2.next .def_76)))
(let ((.def_90 (and .def_49 .def_89)))
(let ((.def_128 (and .def_90 .def_127)))
(let ((.def_129 (and .def_37 .def_128)))
(let ((.def_130 (and .def_41 .def_129)))
(let ((.def_120 (and .s.2 .def_68)))
(let ((.def_121 (and .def_17 .def_120)))
(let ((.def_122 (not .def_121)))
(let ((.def_131 (or .def_122 .def_130)))
(let ((.def_182 (and .def_131 .def_181)))
(let ((.def_116 (and .def_33 .def_115)))
(let ((.def_117 (and .def_37 .def_116)))
(let ((.def_118 (and .def_41 .def_117)))
(let ((.def_112 (and .def_12 .s.2)))
(let ((.def_113 (and .def_17 .def_112)))
(let ((.def_114 (not .def_113)))
(let ((.def_119 (or .def_114 .def_118)))
(let ((.def_183 (and .def_119 .def_182)))
(let ((.def_106 (and .def_25 .s.2.next)))
(let ((.def_107 (and .def_49 .def_106)))
(let ((.def_102 (* 3 main.i)))
(let ((.def_104 (+ .def_102 .def_100)))
(let ((.def_105 (= .def_104 0)))
(let ((.def_108 (and .def_105 .def_107)))
(let ((.def_109 (and .def_37 .def_108)))
(let ((.def_110 (and .def_41 .def_109)))
(let ((.def_95 (and .s.2 .def_45)))
(let ((.def_96 (and .def_17 .def_95)))
(let ((.def_97 (not .def_96)))
(let ((.def_111 (or .def_97 .def_110)))
(let ((.def_184 (and .def_111 .def_183)))
(let ((.def_91 (and .def_33 .def_90)))
(let ((.def_92 (and .def_37 .def_91)))
(let ((.def_93 (and .def_41 .def_92)))
(let ((.def_86 (and .s.2 .def_19)))
(let ((.def_87 (and .def_17 .def_86)))
(let ((.def_88 (not .def_87)))
(let ((.def_94 (or .def_88 .def_93)))
(let ((.def_185 (and .def_94 .def_184)))
(let ((.def_72 (<= main.i 0)))
(let ((.def_70 (and .s.3 .def_69)))
(let ((.def_83 (and .def_70 .def_72)))
(let ((.def_84 (not .def_83)))
(let ((.def_30 (and .def_28 .s.3.next)))
(let ((.def_34 (and .def_30 .def_33)))
(let ((.def_38 (and .def_34 .def_37)))
(let ((.def_42 (and .def_38 .def_41)))
(let ((.def_85 (or .def_42 .def_84)))
(let ((.def_186 (and .def_85 .def_185)))
(let ((.def_77 (and .def_27 .def_76)))
(let ((.def_78 (and .s.3.next .def_77)))
(let ((.def_79 (and .def_33 .def_78)))
(let ((.def_80 (and .def_37 .def_79)))
(let ((.def_81 (and .def_41 .def_80)))
(let ((.def_73 (not .def_72)))
(let ((.def_74 (and .def_70 .def_73)))
(let ((.def_75 (not .def_74)))
(let ((.def_82 (or .def_75 .def_81)))
(let ((.def_187 (and .def_82 .def_186)))
(let ((.def_63 (and .s.3.next .def_62)))
(let ((.def_64 (and .def_33 .def_63)))
(let ((.def_65 (and .def_37 .def_64)))
(let ((.def_66 (and .def_41 .def_65)))
(let ((.def_59 (and .def_15 .s.3)))
(let ((.def_60 (not .def_59)))
(let ((.def_67 (or .def_60 .def_66)))
(let ((.def_188 (and .def_67 .def_187)))
(let ((.def_47 (and .s.3 .def_46)))
(let ((.def_48 (not .def_47)))
(let ((.def_58 (or .def_48 .def_57)))
(let ((.def_189 (and .def_58 .def_188)))
(let ((.def_21 (and .s.3 .def_20)))
(let ((.def_22 (not .def_21)))
(let ((.def_43 (or .def_22 .def_42)))
(let ((.def_190 (and .def_43 .def_189)))
.def_190)))))))))))))))))))))))))))))))))))))))))))))))))))))))))))))))))))))))))))))))))))))))))))))))))))))))))))))))))))))))))))))))))))))))))))))))))))))))))))))))))) (state |.s.1.next| |.s.0.next| |.s.2.next| |.s.3.next| |main.i.next| |main.m.next| |main.n.next|))))
(assert (forall ((|.s.0| Bool) (|.s.1| Bool) (|.s.0.next| Bool) (|.s.1.next| Bool) (|.s.2.next| Bool) (|.s.3.next| Bool) (|main.i.next| Int) (|main.i| Int) (|main.m.next| Int) (|main.m| Int) (|main.n.next| Int) (|main.n| Int) (|.s.3| Bool) (|.s.2| Bool)) (=> (state |.s.1| |.s.0| |.s.2| |.s.3| |main.i| |main.m| |main.n|) (let ((.def_19 (and .s.1 .s.0)))
(let ((.def_14 (not .s.2)))
(let ((.def_20 (and .def_14 .def_19)))
(let ((.def_21 (and .s.3 .def_20)))
(let ((.def_22 (not .def_21)))
.def_22))))))))
(check-sat)
